\ This file has been generated by DOcplex
\ ENCODING=ISO-8859-1
\Problem name: MaximumIndependentSet

Minimize
 obj: - x_0 - x_1 - x_2 - x_3 - x_4 - x_5 - x_6 - x_7 + [ 18 x_1*x_2
      + 18 x_1*x_4 + 18 x_2*x_4 + 18 x_3*x_5 + 18 x_3*x_6 + 18 x_5*x_6 ]/2
Subject To

Bounds
 0 <= x_0 <= 1
 0 <= x_1 <= 1
 0 <= x_2 <= 1
 0 <= x_3 <= 1
 0 <= x_4 <= 1
 0 <= x_5 <= 1
 0 <= x_6 <= 1
 0 <= x_7 <= 1

Binaries
 x_0 x_1 x_2 x_3 x_4 x_5 x_6 x_7
End
